language ESSENCE' 1.0
letting lastdx=95
letting cage be [
[36,2,4,3,4,3,5,3,6,0,0],
[40,9,6,9,5,9,4,8,4,0,0],
[55,7,4,6,4,5,4,5,3,5,2],
[5,4,3,0,0, 0,0, 0,0, 0,0],
[9,2,11,0,0, 0,0, 0,0, 0,0],
[9,2,13,2,12,0,0, 0,0, 0,0],
[16,14,3,0,0, 0,0, 0,0, 0,0],
[6,12,7,0,0, 0,0, 0,0, 0,0],
[37,4,12,5,12,5,13,0,0, 0,0],
[11,15,12,0,0, 0,0, 0,0, 0,0],
[4,11,12,0,0, 0,0, 0,0, 0,0],
[33,1,16,2,16,2,15,0,0, 0,0],
[42,6,1,5,1,4,1,3,1,2,1],
[4,14,10,0,0, 0,0, 0,0, 0,0],
[16,16,14,0,0, 0,0, 0,0, 0,0],
[12,3,9,0,0, 0,0, 0,0, 0,0],
[31,7,13,8,13,8,12,0,0, 0,0],
[24,6,3,6,2,0,0, 0,0, 0,0],
[26,6,16,7,16,0,0, 0,0, 0,0],
[26,11,14,10,14,9,14,8,14,7,14],
[15,15,8,0,0, 0,0, 0,0, 0,0],
[5,1,7,0,0, 0,0, 0,0, 0,0],
[1,10,7,0,0, 0,0, 0,0, 0,0],
[1,13,5,0,0, 0,0, 0,0, 0,0],
[10,7,11,0,0, 0,0, 0,0, 0,0],
[15,13,10,0,0, 0,0, 0,0, 0,0],
[8,8,3,0,0, 0,0, 0,0, 0,0],
[13,15,15,15,16,14,16,0,0, 0,0],
[37,16,13,16,12,16,11,16,10,16,9],
[16,1,12,1,11,0,0, 0,0, 0,0],
[12,2,5,1,5,0,0, 0,0, 0,0],
[27,6,7,7,7,7,8,0,0, 0,0],
[33,13,12,13,13,14,13,0,0, 0,0],
[16,11,11,0,0, 0,0, 0,0, 0,0],
[36,9,12,9,13,10,13,11,13,12,13],
[45,11,15,10,15,10,16,11,16,12,16],
[25,15,4,15,5,0,0, 0,0, 0,0],
[25,4,6,5,6,6,6,0,0, 0,0],
[27,14,7,13,7,13,8,14,8,0,0],
[11,14,1,0,0, 0,0, 0,0, 0,0],
[36,13,11,12,11,12,12,12,10,0,0],
[6,7,3,0,0, 0,0, 0,0, 0,0],
[35,16,6,16,5,16,4,16,3,0,0],
[30,7,6,7,5,6,5,5,5,0,0],
[28,7,2,7,1,8,1,9,1,10,1],
[26,9,7,8,7,8,8,0,0, 0,0],
[39,16,2,15,2,15,3,0,0, 0,0],
[21,3,3,3,2,4,2,0,0, 0,0],
[35,11,7,11,6,12,6,12,5,11,5],
[54,1,6,2,6,2,7,2,8,1,8],
[1,12,2,0,0, 0,0, 0,0, 0,0],
[21,9,2,8,2,0,0, 0,0, 0,0],
[23,2,3,2,2,0,0, 0,0, 0,0],
[7,3,11,0,0, 0,0, 0,0, 0,0],
[41,11,4,11,3,11,2,11,1,0,0],
[14,10,8,11,8,0,0, 0,0, 0,0],
[23,10,5,10,6,0,0, 0,0, 0,0],
[28,15,11,14,11,14,12,0,0, 0,0],
[10,12,9,12,8,0,0, 0,0, 0,0],
[12,12,3,0,0, 0,0, 0,0, 0,0],
[37,3,15,3,14,3,13,3,12,4,13],
[30,8,5,8,6,0,0, 0,0, 0,0],
[15,13,3,13,2,14,2,0,0, 0,0],
[17,8,10,8,11,9,11,0,0, 0,0],
[11,5,10,0,0, 0,0, 0,0, 0,0],
[54,7,9,7,10,6,10,6,9,5,9],
[19,13,15,13,16,0,0, 0,0, 0,0],
[3,1,10,0,0, 0,0, 0,0, 0,0],
[35,10,12,10,11,10,10,10,9,0,0],
[40,9,15,8,15,7,15,6,15,6,14],
[41,9,9,8,9,9,8,9,10,0,0],
[13,1,9,0,0, 0,0, 0,0, 0,0],
[15,3,10,2,10,2,9,0,0, 0,0],
[23,15,6,15,7,0,0, 0,0, 0,0],
[17,12,4,13,4,0,0, 0,0, 0,0],
[32,4,15,4,16,3,16,5,16,0,0],
[19,9,16,8,16,0,0, 0,0, 0,0],
[19,5,14,4,14,5,15,0,0, 0,0],
[19,13,1,12,1,0,0, 0,0, 0,0],
[15,1,1,0,0, 0,0, 0,0, 0,0],
[9,1,2,0,0, 0,0, 0,0, 0,0],
[5,1,3,1,4,0,0, 0,0, 0,0],
[42,1,13,1,14,1,15,2,14,0,0],
[10,4,4,4,5,0,0, 0,0, 0,0],
[15,4,11,0,0, 0,0, 0,0, 0,0],
[9,5,11,6,11,0,0, 0,0, 0,0],
[25,9,3,10,3,10,2,10,4,0,0],
[19,11,9,11,10,0,0, 0,0, 0,0],
[65,12,14,12,15,13,14,14,14,14,15],
[5,13,6,0,0, 0,0, 0,0, 0,0],
[32,13,9,14,9,15,9,15,10,0,0],
[15,14,4,14,5,14,6,0,0, 0,0],
[12,15,1,16,1,0,0, 0,0, 0,0],
[8,15,13,15,14,0,0, 0,0, 0,0],
[21,16,7,16,8,0,0, 0,0, 0,0],
[10,16,15,16,16,0,0, 0,0, 0,0]
]
